NAME: ../File/prFile/tspFile/tsp_file1.tsp
COMMENT: TSP file generated by Python
TYPE: TSP
DIMENSION: 30
EDGE_WEIGHT_TYPE: EUC_2D
NODE_COORD_SECTION
1 50 37
2 19 10
3 72 20
4 41 43
5 1 24
6 52 62
7 68 86
8 82 100
9 12 66
10 97 39
11 37 71
12 29 86
13 6 27
14 6 57
15 85 11
16 22 76
17 44 55
18 2 99
19 97 1
20 27 13
21 48 86
22 36 73
23 50 56
24 57 17
25 24 85
26 23 97
27 18 93
28 93 34
29 34 80
30 72 26
EOF
